files/upTests/__reps/ExplicitVarSizeWithDefault/smallerNested/0002.eprime.solution
language ESSENCE' 1.0
$ minion Nodes: 5
$ minion TotalTime: 0.001212
$ Savile Row TotalTime: 0.327
letting s_SetExplicit_SetExplicitVarSizeWithDefault be [[0, 1, 2, 3;int(1..4)], 
[0, 1, 2, 4;int(1..4)];int(1..2)]
